language ESSENCE' 1.0
$ minion Nodes: 1
$ minion TotalTime: 0.001351
$ Savile Row TotalTime: 0.352
letting pain_tuple1 be [1, 1]
letting pain_tuple2_tuple1 be [[55, 99], 
[55, 99]]
letting pain_tuple2_tuple2 be [[28, 31], 
[28, 32]]
